 vasp.5.4.4.18Apr17-6-g9f103f2a35 (build Jan 03 2019 12:41:38) complex

 executed on             LinuxIFC date 2019.06.27  19:38:20

 INCAR:
 POTCAR:    PAW_PBE Cr 06Sep2000

 POTCAR:    PAW_PBE Cr 06Sep2000
   VRHFIN =Cr : d5 s1

   TITEL  = PAW_PBE Cr 06Sep2000
   POMASS =   51.996; ZVAL   =    6.000    mass and valenz
   ENMAX  =  227.080; ENMIN  =  170.310 eV

  PAW_PBE Cr 06Sep2000                  :

 POSCAR: Cromium bcc afm
  positions in direct lattice
  velocities in cartesian coordinates
 exchange correlation table for  LEXCH =        8
   RHO(1)=    0.500       N(1)  =     2000
   RHO(2)=  100.500       N(2)  =     4000

 ion  position               nearest neighbor table
   1  0.000  0.000  0.000-   2 2.04   2 2.04   2 2.04   2 2.04   2 2.04   2 2.04   2 2.04   2 2.04

   2  0.500  0.500  0.500-   1 2.04   1 2.04   1 2.04   1 2.04   1 2.04   1 2.04   1 2.04   1 2.04

  LATTYP: Found a simple cubic cell.
 ALAT       =     2.3576465577

  Lattice vectors:

 A1 = (   2.3576465577,   0.0000000000,   0.0000000000)
 A2 = (   0.0000000000,   2.3576465577,   0.0000000000)
 A3 = (   0.0000000000,   0.0000000000,   2.3576465577)

Analysis of symmetry for initial positions (statically):
 Subroutine PRICEL returns following result:

  LATTYP: Found a body centered cubic cell.
 ALAT       =     2.3576465577

[...]

   2 primitive cells build up your supercell.

 Routine SETGRP: Setting up the symmetry group for a
 simple cubic supercell.

 Subroutine GETGRP returns: Found 48 space group operations
 (whereof 48 operations were pure point group operations)
 out of a pool of 48 trial point group operations.

The static configuration has the point symmetry O_h .

Analysis of symmetry for dynamics (positions and initial velocities):
 Subroutine PRICEL returns following result:

  LATTYP: Found a body centered cubic cell.
 ALAT       =     2.3576465577

  Lattice vectors:

 A1 = (   1.1788232789,   1.1788232789,   1.1788232789)
 A2 = (   1.1788232789,  -1.1788232789,  -1.1788232789)
 A3 = (  -1.1788232789,   1.1788232789,  -1.1788232789)

   2 primitive cells build up your supercell.

 Routine SETGRP: Setting up the symmetry group for a
 simple cubic supercell.

 Subroutine GETGRP returns: Found 48 space group operations
 (whereof 48 operations were pure point group operations)
 out of a pool of 48 trial point group operations.

The dynamic configuration has the point symmetry O_h .

 Subroutine INISYM returns: Found 48 space group operations
 (whereof 48 operations are pure point group operations),
 and found     2 'primitive' translations

 KPOINTS: Automatic Kpoints generation

Automatic generation of k-mesh.
Space group operators:
 irot       det(A)        alpha          n_x          n_y          n_z        tau_x        tau_y        tau_z
    1     1.000000     0.000000     1.000000     0.000000     0.000000     0.000000     0.000000     0.000000
    2    -1.000000     0.000000     1.000000     0.000000     0.000000     0.000000     0.000000     0.000000
    3     1.000000   120.000000    -0.577350    -0.577350    -0.577350     0.000000     0.000000     0.000000
    4    -1.000000   120.000000    -0.577350    -0.577350    -0.577350     0.000000     0.000000     0.000000
    5     1.000000   120.000000     0.577350     0.577350     0.577350     0.000000     0.000000     0.000000
    6    -1.000000   120.000000     0.577350     0.577350     0.577350     0.000000     0.000000     0.000000
    7     1.000000    90.000000     0.000000     0.000000    -1.000000     0.000000     0.000000     0.000000
    8    -1.000000    90.000000     0.000000     0.000000    -1.000000     0.000000     0.000000     0.000000
    9     1.000000   180.000000     0.000000     0.707107     0.707107     0.000000     0.000000     0.000000
   10    -1.000000   180.000000     0.000000     0.707107     0.707107     0.000000     0.000000     0.000000
   11     1.000000    90.000000     0.000000     1.000000     0.000000     0.000000     0.000000     0.000000
   12    -1.000000    90.000000     0.000000     1.000000     0.000000     0.000000     0.000000     0.000000
   13     1.000000   180.000000     0.000000     0.000000     1.000000     0.000000     0.000000     0.000000
   14    -1.000000   180.000000     0.000000     0.000000     1.000000     0.000000     0.000000     0.000000
   15     1.000000   120.000000    -0.577350     0.577350     0.577350     0.000000     0.000000     0.000000
   16    -1.000000   120.000000    -0.577350     0.577350     0.577350     0.000000     0.000000     0.000000
   17     1.000000   120.000000    -0.577350     0.577350    -0.577350     0.000000     0.000000     0.000000
   18    -1.000000   120.000000    -0.577350     0.577350    -0.577350     0.000000     0.000000     0.000000
   19     1.000000    90.000000     0.000000     0.000000     1.000000     0.000000     0.000000     0.000000
   20    -1.000000    90.000000     0.000000     0.000000     1.000000     0.000000     0.000000     0.000000
   21     1.000000    90.000000    -1.000000     0.000000     0.000000     0.000000     0.000000     0.000000
   22    -1.000000    90.000000    -1.000000     0.000000     0.000000     0.000000     0.000000     0.000000
   23     1.000000   180.000000     0.707107     0.000000     0.707107     0.000000     0.000000     0.000000
   24    -1.000000   180.000000     0.707107     0.000000     0.707107     0.000000     0.000000     0.000000
   25     1.000000   120.000000     0.577350    -0.577350     0.577350     0.000000     0.000000     0.000000
   26    -1.000000   120.000000     0.577350    -0.577350     0.577350     0.000000     0.000000     0.000000
   27     1.000000   120.000000    -0.577350    -0.577350     0.577350     0.000000     0.000000     0.000000
   28    -1.000000   120.000000    -0.577350    -0.577350     0.577350     0.000000     0.000000     0.000000
   29     1.000000   180.000000     1.000000     0.000000     0.000000     0.000000     0.000000     0.000000
   30    -1.000000   180.000000     1.000000     0.000000     0.000000     0.000000     0.000000     0.000000
   31     1.000000    90.000000     0.000000    -1.000000     0.000000     0.000000     0.000000     0.000000
   32    -1.000000    90.000000     0.000000    -1.000000     0.000000     0.000000     0.000000     0.000000
   33     1.000000   180.000000     0.707107     0.707107     0.000000     0.000000     0.000000     0.000000
   34    -1.000000   180.000000     0.707107     0.707107     0.000000     0.000000     0.000000     0.000000
   35     1.000000    90.000000     1.000000     0.000000     0.000000     0.000000     0.000000     0.000000
   36    -1.000000    90.000000     1.000000     0.000000     0.000000     0.000000     0.000000     0.000000
   37     1.000000   120.000000     0.577350    -0.577350    -0.577350     0.000000     0.000000     0.000000
   38    -1.000000   120.000000     0.577350    -0.577350    -0.577350     0.000000     0.000000     0.000000
   39     1.000000   180.000000     0.000000     1.000000     0.000000     0.000000     0.000000     0.000000
   40    -1.000000   180.000000     0.000000     1.000000     0.000000     0.000000     0.000000     0.000000
   41     1.000000   120.000000     0.577350     0.577350    -0.577350     0.000000     0.000000     0.000000
   42    -1.000000   120.000000     0.577350     0.577350    -0.577350     0.000000     0.000000     0.000000
   43     1.000000   180.000000     0.000000    -0.707107     0.707107     0.000000     0.000000     0.000000
   44    -1.000000   180.000000     0.000000    -0.707107     0.707107     0.000000     0.000000     0.000000
   45     1.000000   180.000000     0.707107    -0.707107     0.000000     0.000000     0.000000     0.000000
   46    -1.000000   180.000000     0.707107    -0.707107     0.000000     0.000000     0.000000     0.000000
   47     1.000000   180.000000     0.707107     0.000000    -0.707107     0.000000     0.000000     0.000000
   48    -1.000000   180.000000     0.707107     0.000000    -0.707107     0.000000     0.000000     0.000000

 Subroutine IBZKPT returns following result:

 Found     56 irreducible k-points:

 Following reciprocal coordinates:
            Coordinates               Weight
  0.041667  0.041667  0.041667      8.000000
  0.125000  0.041667  0.041667     24.000000
  0.208333  0.041667  0.041667     24.000000
  0.291667  0.041667  0.041667     24.000000
  0.375000  0.041667  0.041667     24.000000
  0.458333  0.041667  0.041667     24.000000
  0.125000  0.125000  0.041667     24.000000
  0.208333  0.125000  0.041667     48.000000
  0.291667  0.125000  0.041667     48.000000
  0.375000  0.125000  0.041667     48.000000
  0.458333  0.125000  0.041667     48.000000
  0.208333  0.208333  0.041667     24.000000
  0.291667  0.208333  0.041667     48.000000
  0.375000  0.208333  0.041667     48.000000
  0.458333  0.208333  0.041667     48.000000
  0.291667  0.291667  0.041667     24.000000
  0.375000  0.291667  0.041667     48.000000
  0.458333  0.291667  0.041667     48.000000
  0.375000  0.375000  0.041667     24.000000
  0.458333  0.375000  0.041667     48.000000
  0.458333  0.458333  0.041667     24.000000
  0.125000  0.125000  0.125000      8.000000
  0.208333  0.125000  0.125000     24.000000
  0.291667  0.125000  0.125000     24.000000
  0.375000  0.125000  0.125000     24.000000
  0.458333  0.125000  0.125000     24.000000
  0.208333  0.208333  0.125000     24.000000
  0.291667  0.208333  0.125000     48.000000
  0.375000  0.208333  0.125000     48.000000
  0.458333  0.208333  0.125000     48.000000
  0.291667  0.291667  0.125000     24.000000
  0.375000  0.291667  0.125000     48.000000
  0.458333  0.291667  0.125000     48.000000
  0.375000  0.375000  0.125000     24.000000
  0.458333  0.375000  0.125000     48.000000
  0.458333  0.458333  0.125000     24.000000
  0.208333  0.208333  0.208333      8.000000
  0.291667  0.208333  0.208333     24.000000
  0.375000  0.208333  0.208333     24.000000
  0.458333  0.208333  0.208333     24.000000
  0.291667  0.291667  0.208333     24.000000
  0.375000  0.291667  0.208333     48.000000
  0.458333  0.291667  0.208333     48.000000
  0.375000  0.375000  0.208333     24.000000
  0.458333  0.375000  0.208333     48.000000
  0.458333  0.458333  0.208333     24.000000
  0.291667  0.291667  0.291667      8.000000
  0.375000  0.291667  0.291667     24.000000
  0.458333  0.291667  0.291667     24.000000
  0.375000  0.375000  0.291667     24.000000
  0.458333  0.375000  0.291667     48.000000
  0.458333  0.458333  0.291667     24.000000
  0.375000  0.375000  0.375000      8.000000
  0.458333  0.375000  0.375000     24.000000
  0.458333  0.458333  0.375000     24.000000
  0.458333  0.458333  0.458333      8.000000

 Following cartesian coordinates:
            Coordinates               Weight
  0.051428  0.051428  0.051428      8.000000
  0.154285  0.051428  0.051428     24.000000
  0.257142  0.051428  0.051428     24.000000
  0.359999  0.051428  0.051428     24.000000
  0.462856  0.051428  0.051428     24.000000
  0.565712  0.051428  0.051428     24.000000
  0.154285  0.154285  0.051428     24.000000
  0.257142  0.154285  0.051428     48.000000
[...]
   0.45833333  0.37500000  0.20833333       0.028
   0.45833333  0.45833333  0.20833333       0.014
   0.29166667  0.29166667  0.29166667       0.005
   0.37500000  0.29166667  0.29166667       0.014
   0.45833333  0.29166667  0.29166667       0.014
   0.37500000  0.37500000  0.29166667       0.014
   0.45833333  0.37500000  0.29166667       0.028
   0.45833333  0.45833333  0.29166667       0.014
   0.37500000  0.37500000  0.37500000       0.005
   0.45833333  0.37500000  0.37500000       0.014
   0.45833333  0.45833333  0.37500000       0.014
   0.45833333  0.45833333  0.45833333       0.005

 position of ions in fractional coordinates (direct lattice)
   0.00000000  0.00000000  0.00000000
   0.50000000  0.50000000  0.50000000

 position of ions in cartesian coordinates  (Angst):
   0.00000000  0.00000000  0.00000000
   1.17882328  1.17882328  1.17882328

 k-point  1 :   0.0417 0.0417 0.0417  plane waves:     159
 k-point  2 :   0.1250 0.0417 0.0417  plane waves:     159
 k-point  3 :   0.2083 0.0417 0.0417  plane waves:     156
 k-point  4 :   0.2917 0.0417 0.0417  plane waves:     158
 k-point  5 :   0.3750 0.0417 0.0417  plane waves:     160
 k-point  6 :   0.4583 0.0417 0.0417  plane waves:     156
 k-point  7 :   0.1250 0.1250 0.0417  plane waves:     160
 k-point  8 :   0.2083 0.1250 0.0417  plane waves:     157
 k-point  9 :   0.2917 0.1250 0.0417  plane waves:     157
 k-point 10 :   0.3750 0.1250 0.0417  plane waves:     158
 k-point 11 :   0.4583 0.1250 0.0417  plane waves:     159
 k-point 12 :   0.2083 0.2083 0.0417  plane waves:     157
 k-point 13 :   0.2917 0.2083 0.0417  plane waves:     155
 k-point 14 :   0.3750 0.2083 0.0417  plane waves:     152
 k-point 15 :   0.4583 0.2083 0.0417  plane waves:     154
 k-point 16 :   0.2917 0.2917 0.0417  plane waves:     151
 k-point 17 :   0.3750 0.2917 0.0417  plane waves:     152
 k-point 18 :   0.4583 0.2917 0.0417  plane waves:     151
 k-point 19 :   0.3750 0.3750 0.0417  plane waves:     150
 k-point 20 :   0.4583 0.3750 0.0417  plane waves:     153
 k-point 21 :   0.4583 0.4583 0.0417  plane waves:     152
 k-point 22 :   0.1250 0.1250 0.1250  plane waves:     160
 k-point 23 :   0.2083 0.1250 0.1250  plane waves:     156
 k-point 24 :   0.2917 0.1250 0.1250  plane waves:     156
 k-point 25 :   0.3750 0.1250 0.1250  plane waves:     155
 k-point 26 :   0.4583 0.1250 0.1250  plane waves:     154
 k-point 27 :   0.2083 0.2083 0.1250  plane waves:     155
 k-point 28 :   0.2917 0.2083 0.1250  plane waves:     153
 k-point 29 :   0.3750 0.2083 0.1250  plane waves:     154
 k-point 30 :   0.4583 0.2083 0.1250  plane waves:     155
 k-point 31 :   0.2917 0.2917 0.1250  plane waves:     153
 k-point 32 :   0.3750 0.2917 0.1250  plane waves:     155
 k-point 33 :   0.4583 0.2917 0.1250  plane waves:     155
 k-point 34 :   0.3750 0.3750 0.1250  plane waves:     156
 k-point 35 :   0.4583 0.3750 0.1250  plane waves:     154
 k-point 36 :   0.4583 0.4583 0.1250  plane waves:     156
 k-point 37 :   0.2083 0.2083 0.2083  plane waves:     157
 k-point 38 :   0.2917 0.2083 0.2083  plane waves:     155
 k-point 39 :   0.3750 0.2083 0.2083  plane waves:     154
 k-point 40 :   0.4583 0.2083 0.2083  plane waves:     152
 k-point 41 :   0.2917 0.2917 0.2083  plane waves:     156
 k-point 42 :   0.3750 0.2917 0.2083  plane waves:     156
 k-point 43 :   0.4583 0.2917 0.2083  plane waves:     156
 k-point 44 :   0.3750 0.3750 0.2083  plane waves:     158
 k-point 45 :   0.4583 0.3750 0.2083  plane waves:     156
 k-point 46 :   0.4583 0.4583 0.2083  plane waves:     152
 k-point 47 :   0.2917 0.2917 0.2917  plane waves:     157
 k-point 48 :   0.3750 0.2917 0.2917  plane waves:     156
 k-point 49 :   0.4583 0.2917 0.2917  plane waves:     152
 k-point 50 :   0.3750 0.3750 0.2917  plane waves:     150
 k-point 51 :   0.4583 0.3750 0.2917  plane waves:     151
 k-point 52 :   0.4583 0.4583 0.2917  plane waves:     148
 k-point 53 :   0.3750 0.3750 0.3750  plane waves:     151
 k-point 54 :   0.4583 0.3750 0.3750  plane waves:     152
 k-point 55 :   0.4583 0.4583 0.3750  plane waves:     152
 k-point 56 :   0.4583 0.4583 0.4583  plane waves:     157

 maximum and minimum number of plane-waves per node :       160      148

 maximum number of plane-waves:       160
 maximum index in each direction:
   IXMAX=    3   IYMAX=    3   IZMAX=    3
   IXMIN=   -3   IYMIN=   -3   IZMIN=   -3

 serial   3D FFT for wavefunctions
 parallel 3D FFT for charge:
    minimum data exchange during FFTs selected (reduces bandwidth)

 Broyden mixing: mesh for mixing (old mesh)
   NGX =  7   NGY =  7   NGZ =  7
  (NGX  = 28   NGY  = 28   NGZ  = 28)
  gives a total of    343 points

 initial charge density was supplied:
 charge density of overlapping atoms calculated
 number of electron      12.0000000 magnetization
 keeping initial charge density in first step

 Maximum index for augmentation-charges        82951 (set IRDMAX)

 First call to EWALD:  gamma=   0.752
 Maximum number of real-space cells 3x 3x 3
 Maximum number of reciprocal cells 3x 3x 3

--------------------------------------- Iteration      1(   1)  ---------------------------------------

 BZINTS: Fermi energy: 22.959092; 12.000000 electrons
         Band energy: 206.914699;  BLOECHL correction: -0.432147

 eigenvalue-minimisations  :  1144
 total energy-change (2. order) : 0.5450218E+02  (-0.3681613E+03)
 number of electron      12.0000000 magnetization
 augmentation part       12.0000000 magnetization

 Free energy of the ion-electron system (eV)
  alpha Z        PSCENC =       126.15118654
  Ewald energy   TEWEN  =      -800.18387015
  -Hartree energ DENC   =       -36.21658786
  -exchange      EXHF   =         0.00000000
  -V(xc)+E(xc)   XCENC  =       -35.45540263
  PAW double counting   =       555.30997384     -515.76403743
  entropy T*S    EENTRO =         0.00000000
  eigenvalues    EBANDS =       206.91469939
  atomic energy  EATOM  =       553.74622060
  Solvation  Ediel_sol  =         0.00000000
  free energy    TOTEN  =        54.50218230 eV

  energy without entropy =       54.50218230  energy(sigma->0) =       54.50218230

[...]

 eigenvalue-minimisations  :  1154
 total energy-change (2. order) :-0.6348358E+02  (-0.5926690E+02)
 number of electron      12.0000000 magnetization
 augmentation part       12.0000000 magnetization

[...]

 Broyden mixing:
  rms(total) = 0.41070E+01    rms(broyden)= 0.41070E+01
  rms(prec ) = 0.44870E+01
  weight for this iteration     100.00

[...]

 eigenvalues of (default mixing * dielectric matrix)
  average eigenvalue GAMMA=   1.9636
  1.9636

[...]

 average (electrostatic) potential at core
  the test charge radii are     1.1394
  (the norm of the test charge is              1.0000)
       1 -33.3729       2 -33.3729

 E-fermi :  16.1019     XC(G=0): -16.4673     alpha+bet :-28.9087

 k-point     1 :       0.0417    0.0417    0.0417
  band No.  band energies     occupation
      1       6.3810      2.00000
      2       6.3810      2.00000
      3       7.4635      2.00000
      4      13.7209      2.00000
      5      13.7209      2.00000
      6      14.0038      2.00000
      7      17.8424      0.00000
      8      17.8424      0.00000
      9      20.5516      0.00000
     10      21.0244      0.00000

[...]

 soft charge-density along one line, spin component           1
         0         1         2         3         4         5         6         7         8         9
 total charge-density along one line

------------------------ aborting loop because EDIFF is reached ----------------------------------------

  FORCE on cell =-STRESS in cart. coord.  units (eV):
  Direction    XX          YY          ZZ          XY          YZ          ZX
  Alpha Z   126.15119   126.15119   126.15119
  Ewald    -266.72794  -266.72794  -266.72794    -0.00000    -0.00000    -0.00000
  Hartree     8.22393     8.22393     8.22393    -0.00000    -0.00000    -0.00000
  E(xc)     -62.28665   -62.28665   -62.28665    -0.00000    -0.00000     0.00000
  Local      52.49341    52.49341    52.49341     0.00000    -0.00000     0.00000
  n-local   -11.85501    -0.88686    13.58322     5.62417    -3.42289     0.39311
  augment    50.97243    50.97243    50.97243     0.00000     0.00000     0.00000
  Kinetic   118.80097   123.56139   136.86258     8.28686    -0.15355     3.16227
  Fock        0.00000     0.00000     0.00000     0.00000     0.00000     0.00000
  Total      35.51514    35.51514    35.51514    -0.00000    -0.00000    -0.00000
  in kB    4341.98192  4341.98192  4341.98192    -0.00000    -0.00000    -0.00000

 VOLUME and BASIS-vectors are now :
  energy-cutoff  :      300.00
  volume of cell :       13.10
      direct lattice vectors                 reciprocal lattice vectors
     2.357646558  0.000000000  0.000000000     0.424151787  0.000000000  0.000000000
     0.000000000  2.357646558  0.000000000     0.000000000  0.424151787  0.000000000
     0.000000000  0.000000000  2.357646558     0.000000000  0.000000000  0.424151787

[...]

 FORCES acting on ions
    electron-ion (+dipol)            ewald-force                    non-local-force                 convergence-correction
   -.342E-14 0.454E-14 -.884E-14   -.219E-14 -.303E-14 -.139E-14   0.000E+00 0.000E+00 0.000E+00   0.249E-15 -.127E-15 -.165E-14
   0.469E-13 -.132E-12 0.307E-13   0.136E-14 0.214E-14 0.108E-14   0.000E+00 -.258E-25 0.000E+00   -.291E-14 0.870E-15 -.283E-14
   0.434E-13 -.127E-12 0.219E-13   -.829E-15 -.885E-15 -.309E-15   0.000E+00 -.258E-25 0.000E+00   -.266E-14 0.743E-15 -.449E-14

 POSITION                                       TOTAL-FORCE (eV/Angst)
      0.00000      0.00000      0.00000         0.000000      0.000000      0.000000
      1.17882      1.17882      1.17882         0.000000     -0.000000     -0.000000
    total drift:                                0.000000     -0.000000      0.000000

  FREE ENERGIE OF THE ION-ELECTRON SYSTEM (eV)
  free  energy   TOTEN  =       -10.54577062 eV

  energy  without entropy=      -10.54577062  energy(sigma->0) =      -10.54577062

[...]

 E-fermi :   0.0279     XC(G=0):  -7.7083     alpha+bet : -4.5167

[...]

 d Force = 0.0000000E+00[ 0.000E+00, 0.000E+00]  d Energy =-0.8050646E+02 0.805E+02
 d Force = 0.0000000E+00[ 0.000E+00, 0.000E+00]  d Ewald  =-0.3692064E+03 0.369E+03

 Steepest descent step on ions:
 trial-energy change:   80.506456  1 .order  182.226400  -91.274509  455.727308
  (g-gl).g = 0.913E+02      g.g   = 0.913E+02  gl.gl    = 0.000E+00
 g(Force)  = 0.000E+00   g(Stress)= 0.913E+02 ortho     = 0.000E+00
 gamma     =   0.00000
 trial     =   1.00000
 opt step  =   0.16686  (harmonic =   0.16686) maximal distance =0.00000000
 next E    =   -18.160952   (d E  =  -7.61518)

[...]

 d Force = 0.0000000E+00[ 0.000E+00, 0.000E+00]  d Energy = 0.8842544E+02-0.884E+02
 d Force = 0.0000000E+00[ 0.000E+00, 0.000E+00]  d Ewald  = 0.2691283E+03-0.269E+03

[...]

 d Force = 0.0000000E+00[ 0.000E+00, 0.000E+00]  d Energy = 0.3132511E+00-0.313E+00
 d Force = 0.0000000E+00[ 0.000E+00, 0.000E+00]  d Ewald  =-0.1528623E+02 0.153E+02

[...]

 d Force = 0.0000000E+00[ 0.000E+00, 0.000E+00]  d Energy = 0.5196415E-03-0.520E-03
 d Force = 0.0000000E+00[ 0.000E+00, 0.000E+00]  d Ewald  =-0.1057438E+01 0.106E+01

[...]

 eigenvalue-minimisations  :   574
 total energy-change (2. order) : 0.1344274E-06  (-0.5641816E-09)
 number of electron      12.0000000 magnetization
 augmentation part        4.9660371 magnetization

[...]

 Broyden mixing:
  rms(total) = 0.13877E-05    rms(broyden)= 0.13864E-05
  rms(prec ) = 0.35075E-05
  weight for this iteration     100.00

 eigenvalues of (default mixing * dielectric matrix)
  average eigenvalue GAMMA=   1.4418
  2.7857  2.5510  0.9738  0.9738  0.6833  0.6833

[...]

--------------------------------------- Iteration      7(   8)  ---------------------------------------

 BZINTS: Fermi energy:  8.004263; 12.000000 electrons
         Band energy:  65.575974;  BLOECHL correction: -0.022258

 eigenvalue-minimisations  :   570
 total energy-change (2. order) :-0.8925326E-08  (-0.5296346E-11)
 number of electron      12.0000000 magnetization
 augmentation part        4.9660425 magnetization

 Free energy of the ion-electron system (eV)
  alpha Z        PSCENC =        74.53559637
  Ewald energy   TEWEN  =      -671.45037866
  -Hartree energ DENC   =       -41.78071749
  -exchange      EXHF   =         0.00000000
  -V(xc)+E(xc)   XCENC  =       -38.62150283
  PAW double counting   =       865.04574209     -825.91559451
  entropy T*S    EENTRO =         0.00000000
  eigenvalues    EBANDS =        65.57597439
  atomic energy  EATOM  =       553.74622060
  Solvation  Ediel_sol  =         0.00000000
  free energy    TOTEN  =       -18.86466002 eV

  energy without entropy =      -18.86466002  energy(sigma->0) =      -18.86466002

 average (electrostatic) potential at core
  the test charge radii are     1.1394
  (the norm of the test charge is              1.0000)
       1 -41.0225       2 -41.0225

 E-fermi :   8.0043     XC(G=0): -13.3994     alpha+bet :-17.0805

[...]

 k-point    56 :       0.4583    0.4583    0.4583
  band No.  band energies     occupation
      1       5.3187      2.00000
      2       5.4804      2.00000
      3       5.4804      2.00000
      4       5.7486      2.00000
      5       5.7486      2.00000
      6       5.8265      2.00000
      7       9.5846      0.00000
      8       9.5846      0.00000
      9       9.5871      0.00000
     10       9.5871      0.00000

 soft charge-density along one line, spin component           1
         0         1         2         3         4         5         6         7         8         9
 total charge-density along one line

------------------------ aborting loop because EDIFF is reached ----------------------------------------

  FORCE on cell =-STRESS in cart. coord.  units (eV):
  Direction    XX          YY          ZZ          XY          YZ          ZX
  Alpha Z    74.53560    74.53560    74.53560
  Ewald    -223.81678  -223.81678  -223.81678    -0.00000    -0.00000    -0.00000
  Hartree    13.92691    13.92691    13.92691    -0.00000    -0.00000    -0.00000
  E(xc)     -53.32163   -53.32163   -53.32163     0.00000     0.00000    -0.00000
  Local      46.79097    46.79097    46.79097    -0.00000    -0.00000    -0.00000
  n-local   -23.25842   -16.84899   -11.29752     2.90013    -1.05217     0.47092
  augment    55.02603    55.02603    55.02603    -0.00000    -0.00000    -0.00000
  Kinetic   101.55600   102.17158   108.25408     5.53336    -1.26322     1.49729
  Fock        0.00000     0.00000     0.00000     0.00000     0.00000     0.00000
  Total       0.00001     0.00001     0.00001    -0.00000    -0.00000     0.00000
  in kB       0.00090     0.00090     0.00090    -0.00000    -0.00000     0.00000

 VOLUME and BASIS-vectors are now :
  energy-cutoff  :      300.00
  volume of cell :       22.18
      direct lattice vectors                 reciprocal lattice vectors
     2.809665177  0.000000000  0.000000000     0.355914295  0.000000000  0.000000000
     0.000000000  2.809665177  0.000000000     0.000000000  0.355914295  0.000000000
     0.000000000  0.000000000  2.809665177     0.000000000  0.000000000  0.355914295

  length of vectors
     2.809665177  2.809665177  2.809665177     0.355914295  0.355914295  0.355914295

 FORCES acting on ions
    electron-ion (+dipol)            ewald-force                    non-local-force                 convergence-correction
   0.144E-14 0.387E-14 -.815E-14   0.507E-15 -.307E-14 -.150E-14   0.323E-26 0.646E-26 0.646E-26   -.799E-14 -.314E-14 -.426E-14
   0.532E-13 -.185E-12 0.246E-13   -.819E-16 0.228E-14 0.945E-15   0.323E-26 0.646E-26 0.646E-26   0.841E-14 0.330E-14 -.234E-14
   0.546E-13 -.182E-12 0.165E-13   0.425E-15 -.796E-15 -.552E-15   0.646E-26 0.129E-25 0.129E-25   0.422E-15 0.163E-15 -.660E-14

 POSITION                                       TOTAL-FORCE (eV/Angst)
      0.00000      0.00000      0.00000        -0.000000     -0.000000     -0.000000
      1.40483      1.40483      1.40483         0.000000      0.000000      0.000000
    total drift:                                0.000000     -0.000000      0.000000

  FREE ENERGIE OF THE ION-ELECTRON SYSTEM (eV)
  free  energy   TOTEN  =       -18.86466002 eV

  energy  without entropy=      -18.86466002  energy(sigma->0) =      -18.86466002

 d Force = 0.0000000E+00[ 0.000E+00, 0.000E+00]  d Energy =-0.1922522E-05 0.192E-05
 d Force = 0.0000000E+00[ 0.000E+00, 0.000E+00]  d Ewald  =-0.3431167E-01 0.343E-01

 reached required accuracy - stopping structural energy minimisation
 BZINTS: Fermi energy:  8.004263; 12.000000 electrons
         Band energy:  65.575974;  BLOECHL correction: -0.022258